11
2147483647 42 7 40 39 79 91 93 56 20 95 
42 2147483647 59 33 32 22 85 28 31 1 46 
7 59 2147483647 95 64 46 30 25 97 58 87 
40 33 95 2147483647 59 47 28 71 49 2 26 
39 32 64 59 2147483647 26 80 77 79 7 35 
79 22 46 47 26 2147483647 52 95 72 11 32 
91 85 30 28 80 52 2147483647 22 88 13 98 
93 28 25 71 77 95 22 2147483647 31 92 21 
56 31 97 49 79 72 88 31 2147483647 53 7 
20 1 58 2 7 11 13 92 53 2147483647 55 
95 46 87 26 35 32 98 21 7 55 2147483647 
